100
128
37
37
23
58
41
52
39
24
41
62
10
11
51
60
8
45
45
20
15
12
15
38
59
63
55
16
20
33
52
35
25
13
40
64
22
19
2
39
49
34
63
14
32
40
58
17
59
1
5
3
34
17
42
22
49
14
12
32
8
37
1
5
3
43
23
21
28
2
1
14
3
38
17
48
36
43
23
61
53
15
16
3
43
32
2
27
29
2
24
50
3
3
63
43
21
16
36
41
4
37